s td 233 9 254
b 1 14 68 124
b 2 5 16 78
b 3 18 54 82
b 4 19 57 166
b 5 30 122 216
b 6 56 138 239
b 7 45 55 62
b 8 5 69
b 9 26 54
b 10 103 115 232
b 11 84 124
b 12 197 232
b 13 188 247 252
b 14 2 8 134
b 15 7 50 186
b 16 17 73 210
b 17 26 167 171
b 18 29 208 228
b 19 33 97 195
b 20 38 157 192
b 21 36 43 122
b 22 45 55 225
b 23 48 119 200
b 24 35 51 194
b 25 55 185 225
b 26 57 166 222
b 27 67 137 214
b 28 4 61 69
b 29 73 162 210
b 30 37 76 147
b 31 3 77 237
b 32 3 97 136 237
b 33 80 104 193
b 34 83 192 244
b 35 39 84 247
b 36 63 85 129
b 37 86 123 150
b 38 65 88 239
b 39 97 136 195
b 40 101 120 179
b 41 106 134 146
b 42 107 226 236
b 43 11 109 116
b 44 110 112 248
b 45 24 118 224
b 46 36 122 234
b 47 123 127 150
b 48 128 159 163
b 49 63 129 248
b 50 119 132 134
b 51 35 138 239
b 52 108 141 240
b 53 142 159 230
b 54 127 150 218
b 55 36 154 211
b 56 131 155 228
b 57 157 192 219
b 58 53 144 160 197
b 59 53 144 197
b 60 53 144 238
b 61 15 24 165
b 62 95 166 222
b 63 61 127 174
b 64 42 92 175
b 65 72 182 206
b 66 81 183 206
b 67 27 92 184
b 68 188 235 247
b 69 35 194 244
b 70 136 164 195
b 71 12 198 218
b 72 201 212 253
b 73 196 202 204
b 74 72 81 206
b 75 47 208 228
b 76 47 131 228
b 77 47 131 162
b 78 131 162 212
b 79 192 213 215 219
b 80 37 130 217
b 81 25 42 223
b 82 22 41 227 243
b 83 135 231 233
b 84 9 226 236
b 85 35 65 239
b 86 35 192 244
b 87 35 192 215 219
b 88 35 65 219
b 89 65 240
b 90 108 212 240
b 91 99 149 246
b 92 39 235 247
b 93 36 210 249
b 94 12 152 218 233
b 95 22 41 238 243
b 96 32 44 147 202
b 97 36 210 211 234
b 98 39 140 158 235
b 99 140 148 158 235
b 100 41 172 238 243
b 101 172 225 238 243
b 102 91 146 189 190
b 103 1 8 37 111 119 126 164 191 238
b 104 37 61 111 126 149 164 191 226 238
b 105 37 61 92 126 149 226 238
b 106 61 90 92 126 149 151 226 238
b 107 61 89 90 92 126 151 226 238
b 108 53 61 89 90 151 226 238
b 109 53 61 75 89 90 151 226
b 110 53 61 75 90 161 226
b 111 53 61 75 90 161 173
b 112 53 61 161 173 242
b 113 61 161 173 242 251
b 114 61 161 220 242 251
b 115 4 61 220 242
b 116 52 61 161 220 251
b 117 52 61 79 220
b 118 139 173 242 251
b 119 53 173 235 242
b 120 53 148 173 235
b 121 53 140 148 235
b 122 75 90 161 173 209
b 123 75 153 173 209
b 124 53 75 89 151 176
b 125 49 53 75 176
b 126 75 151 176 250
b 127 89 92 126 151 169
b 128 27 92 126 151 169
b 129 90 92 149 151 207 226
b 130 9 90 207 226
b 131 90 92 151 170 207
b 132 42 92 151 170 207
b 133 25 42 170 207
b 134 42 143 151 170
b 135 37 61 71 99 111 149 164 191 226
b 136 61 71 99 111 164 181 191 226
b 137 61 71 74 93 99 164 181 191 226
b 138 74 93 164 180 181 191
b 139 93 164 167 180 191
b 140 10 93 167 180
b 141 167 171 180 191
b 142 74 87 180 181 191
b 143 87 181 191 254
b 144 61 71 74 93 99 164 181 212 226
b 145 61 71 72 74 93 99 181 212 226
b 146 50 61 71 72 74 99 181 212 226
b 147 50 71 72 74 181 214
b 148 50 72 74 205 214
b 149 72 74 117 205 214
b 150 13 117 205 214
b 151 72 117 178 205
b 152 74 137 181 214
b 153 50 61 71 72 81 99 212 226
b 154 50 61 71 81 99 210 212 226
b 155 50 61 63 71 81 99 210 226
b 156 50 61 63 71 99 120 210 226
b 157 50 61 63 71 120 145 210 226
b 158 61 63 120 145 210 226 229
b 159 61 63 145 210 226 229 248
b 160 61 127 210 226 229 248
b 161 21 127 210 226 229 248
b 162 21 40 127 210 226 229
b 163 21 40 127 210 234
b 164 40 66 127 234
b 165 21 40 125 210 234
b 166 125 210 211 234
b 167 21 40 127 135 226 229
b 168 40 127 135 218 226
b 169 40 135 218 233
b 170 40 152 218 233
b 171 110 145 229 248
b 172 120 179 226 229
b 173 50 63 71 145 177
b 174 31 71 145 177
b 175 71 120 145 245
b 176 50 63 81 199 210
b 177 50 81 186 199
b 178 81 210 212 253
b 179 162 210 212 253
b 180 93 108 164 212
b 181 24 37 71 99 111 149
b 182 24 37 111 149 230
b 183 24 111 113 149 230
b 184 24 113 149 163 230
b 185 15 24 149 163
b 186 24 94 113 163
b 187 113 159 163 230
b 188 111 113 114 230
b 189 24 71 99 224
b 190 1 8 37 111 119 164 191 222
b 191 1 8 37 44 119 222
b 192 8 37 44 119 196 222
b 193 8 44 119 196 200 222
b 194 6 8 44 196 200
b 195 6 8 28 44
b 196 6 8 196 200 203
b 197 105 196 200 203
b 198 37 44 196 202 222
b 199 37 44 147 202 222
b 200 95 147 202 222
b 201 37 96 111 119 164 191 222
b 202 34 37 96 111 119 164 222
b 203 34 96 119 164 222 241
b 204 34 96 116 164 241
b 205 34 59 96 116 241
b 206 34 59 104 116 241
b 207 59 104 116 193
b 208 59 116 121 193
b 209 116 121 156 193
b 210 11 116 121 156
b 211 20 116 156 193
b 212 46 121 156 193
b 213 34 59 60 104 241
b 214 58 59 60 104
b 215 60 104 133 241
b 216 96 98 116 164
b 217 23 98 116 164
b 218 34 64 222 241
b 219 34 37 96 111 130
b 220 70 96 111 191
b 221 1 8 119 126 146 238
b 222 8 119 134 146
b 223 126 146 185 238
b 224 146 185 189 238
b 225 185 189 225 238
b 226 172 189 225 238
b 227 146 185 189 190
b 228 27 100 126 169
b 229 136 164 187 221
b 230 164 168 187 221
b 231 102 164 168 221
b 232 23 102 164 168
b 233 23 98 164 168
1 11
2 8
3 9
4 26
5 46
6 51
7 22
8 28
9 17
10 12
11 35
12 59
13 68
14 222
15 177
16 29
17 141
18 75
19 39
20 57
21 46
22 25
23 193
24 69
25 225
26 62
27 152
28 115
29 179
30 199
31 32
32 39
33 207
34 86
35 92
36 49
37 47
38 85
39 70
40 172
41 222
42 84
43 210
44 171
45 189
46 97
47 54
48 187
49 159
50 222
51 85
52 90
53 187
54 168
55 97
56 76
57 87
58 59
59 60
60 108
61 185
62 200
63 160
64 132
65 74
66 74
67 128
68 92
69 86
70 229
71 94
72 178
73 198
74 153
75 76
76 77
77 78
78 179
79 87
80 219
81 133
82 95
83 169
84 130
85 88
86 87
87 88
88 89
89 90
90 180
91 135
92 98
93 97
94 170
95 100
96 199
97 166
98 99
99 121
100 101
101 226
102 227
103 104
103 190
103 221
104 105
104 135
105 106
106 107
106 129
107 108
107 127
108 109
109 110
109 124
110 111
111 112
111 122
112 113
112 119
113 114
113 118
114 115
114 116
116 117
119 120
120 121
122 123
124 125
124 126
127 128
128 228
129 130
129 131
131 132
132 133
132 134
135 136
135 181
136 137
137 138
137 144
138 139
138 142
139 140
139 141
142 143
144 145
144 180
145 146
146 147
146 153
147 148
147 152
148 149
149 150
149 151
153 154
154 155
154 178
155 156
155 176
156 157
157 158
157 173
157 175
158 159
158 172
159 160
159 171
160 161
161 162
162 163
162 167
163 164
163 165
165 166
167 168
168 169
169 170
173 174
176 177
178 179
181 182
181 189
182 183
183 184
183 188
184 185
184 186
184 187
190 191
190 201
191 192
192 193
192 198
193 194
194 195
194 196
196 197
198 199
199 200
201 202
201 220
202 203
202 219
203 204
203 218
204 205
204 216
205 206
206 207
206 213
207 208
208 209
209 210
209 211
209 212
213 214
213 215
216 217
217 233
221 222
221 223
223 224
224 225
224 227
225 226
229 230
230 231
231 232
232 233
